*SENSE:Minimize
NAME          MODEL
ROWS
 N  OBJ
 L  C0000000
 L  C0000001
 G  C0000002
 L  C0000003
 G  C0000004
 G  C0000005
 L  C0000006
 E  C0000007
 E  C0000008
 L  C0000009
 L  C0000010
 L  C0000011
 L  C0000012
 L  C0000013
 G  C0000014
 L  C0000015
 G  C0000016
 G  C0000017
 L  C0000018
 E  C0000019
 E  C0000020
 L  C0000021
 L  C0000022
 L  C0000023
 L  C0000024
 L  C0000025
 G  C0000026
 L  C0000027
 G  C0000028
 G  C0000029
 L  C0000030
 E  C0000031
 E  C0000032
 L  C0000033
 L  C0000034
 L  C0000035
 L  C0000036
 L  C0000037
 G  C0000038
 L  C0000039
 G  C0000040
 G  C0000041
 L  C0000042
 E  C0000043
 E  C0000044
 L  C0000045
 L  C0000046
 L  C0000047
 L  C0000048
 L  C0000049
 G  C0000050
 L  C0000051
 G  C0000052
 G  C0000053
 L  C0000054
 E  C0000055
 E  C0000056
 L  C0000057
 L  C0000058
 L  C0000059
 L  C0000060
 L  C0000061
 G  C0000062
 L  C0000063
 G  C0000064
 G  C0000065
 L  C0000066
 E  C0000067
 E  C0000068
 L  C0000069
 L  C0000070
 L  C0000071
 L  C0000072
 L  C0000073
 G  C0000074
 L  C0000075
 G  C0000076
 G  C0000077
 L  C0000078
 E  C0000079
 E  C0000080
 L  C0000081
 L  C0000082
 L  C0000083
 L  C0000084
 L  C0000085
 G  C0000086
 L  C0000087
 G  C0000088
 G  C0000089
 L  C0000090
 E  C0000091
 E  C0000092
 L  C0000093
 L  C0000094
 L  C0000095
 L  C0000096
 L  C0000097
 G  C0000098
 L  C0000099
 G  C0000100
 G  C0000101
 L  C0000102
 E  C0000103
 E  C0000104
 L  C0000105
 L  C0000106
 L  C0000107
 L  C0000108
 L  C0000109
 G  C0000110
 L  C0000111
 G  C0000112
 G  C0000113
 L  C0000114
 E  C0000115
 E  C0000116
 L  C0000117
 L  C0000118
 L  C0000119
 L  C0000120
 L  C0000121
 G  C0000122
 L  C0000123
 G  C0000124
 G  C0000125
 L  C0000126
 E  C0000127
 E  C0000128
 L  C0000129
 L  C0000130
 L  C0000131
 L  C0000132
 L  C0000133
 G  C0000134
 L  C0000135
 G  C0000136
 G  C0000137
 L  C0000138
 E  C0000139
 E  C0000140
 L  C0000141
 L  C0000142
 L  C0000143
 L  C0000144
 L  C0000145
 G  C0000146
 L  C0000147
 G  C0000148
 G  C0000149
 L  C0000150
 E  C0000151
 E  C0000152
 L  C0000153
 L  C0000154
 L  C0000155
 L  C0000156
 L  C0000157
 G  C0000158
 L  C0000159
 G  C0000160
 G  C0000161
 L  C0000162
 E  C0000163
 E  C0000164
 L  C0000165
 L  C0000166
 L  C0000167
 L  C0000168
 L  C0000169
 G  C0000170
 L  C0000171
 G  C0000172
 G  C0000173
 L  C0000174
 E  C0000175
 E  C0000176
 L  C0000177
 L  C0000178
 L  C0000179
 L  C0000180
 L  C0000181
 G  C0000182
 L  C0000183
 G  C0000184
 G  C0000185
 L  C0000186
 E  C0000187
 E  C0000188
 L  C0000189
 L  C0000190
 L  C0000191
 L  C0000192
 L  C0000193
 G  C0000194
 L  C0000195
 G  C0000196
 G  C0000197
 L  C0000198
 E  C0000199
 E  C0000200
 L  C0000201
 L  C0000202
 L  C0000203
 L  C0000204
 L  C0000205
 G  C0000206
 L  C0000207
 G  C0000208
 G  C0000209
 L  C0000210
 E  C0000211
 E  C0000212
 L  C0000213
 L  C0000214
 L  C0000215
 L  C0000216
 L  C0000217
 G  C0000218
 L  C0000219
 G  C0000220
 G  C0000221
 L  C0000222
 E  C0000223
 E  C0000224
 L  C0000225
 L  C0000226
 L  C0000227
 L  C0000228
 L  C0000229
 G  C0000230
 L  C0000231
 G  C0000232
 G  C0000233
 L  C0000234
 E  C0000235
 E  C0000236
 L  C0000237
 L  C0000238
 L  C0000239
 L  C0000240
 L  C0000241
 G  C0000242
 L  C0000243
 G  C0000244
 G  C0000245
 L  C0000246
 E  C0000247
 E  C0000248
 L  C0000249
 L  C0000250
 L  C0000251
 L  C0000252
 L  C0000253
 G  C0000254
 L  C0000255
 G  C0000256
 G  C0000257
 L  C0000258
 E  C0000259
 E  C0000260
 L  C0000261
 L  C0000262
 L  C0000263
 L  C0000264
 L  C0000265
 G  C0000266
 L  C0000267
 G  C0000268
 G  C0000269
 L  C0000270
 E  C0000271
 E  C0000272
 L  C0000273
 L  C0000274
 L  C0000275
 L  C0000276
 L  C0000277
 G  C0000278
 L  C0000279
 G  C0000280
 G  C0000281
 L  C0000282
 E  C0000283
 E  C0000284
 L  C0000285
 L  C0000286
 L  C0000287
COLUMNS
    X0000000  C0000008   1.000000000000e+00
    X0000000  C0000010   1.000000000000e+00
    X0000000  OBJ        1.000000000000e+01
    X0000001  C0000116   1.000000000000e+00
    X0000001  C0000118   1.000000000000e+00
    X0000001  OBJ        1.000000000000e+01
    X0000002  C0000128   1.000000000000e+00
    X0000002  C0000130   1.000000000000e+00
    X0000002  OBJ        1.000000000000e+01
    X0000003  C0000140   1.000000000000e+00
    X0000003  C0000142   1.000000000000e+00
    X0000003  OBJ        1.000000000000e+01
    X0000004  C0000152   1.000000000000e+00
    X0000004  C0000154   1.000000000000e+00
    X0000004  OBJ        1.000000000000e+01
    X0000005  C0000164   1.000000000000e+00
    X0000005  C0000166   1.000000000000e+00
    X0000005  OBJ        1.000000000000e+01
    X0000006  C0000176   1.000000000000e+00
    X0000006  C0000178   1.000000000000e+00
    X0000006  OBJ        1.000000000000e+01
    X0000007  C0000188   1.000000000000e+00
    X0000007  C0000190   1.000000000000e+00
    X0000007  OBJ        1.000000000000e+01
    X0000008  C0000200   1.000000000000e+00
    X0000008  C0000202   1.000000000000e+00
    X0000008  OBJ        1.000000000000e+01
    X0000009  C0000212   1.000000000000e+00
    X0000009  C0000214   1.000000000000e+00
    X0000009  OBJ        1.000000000000e+01
    X0000010  C0000224   1.000000000000e+00
    X0000010  C0000226   1.000000000000e+00
    X0000010  OBJ        1.000000000000e+01
    X0000011  C0000020   1.000000000000e+00
    X0000011  C0000022   1.000000000000e+00
    X0000011  OBJ        1.000000000000e+01
    X0000012  C0000236   1.000000000000e+00
    X0000012  C0000238   1.000000000000e+00
    X0000012  OBJ        1.000000000000e+01
    X0000013  C0000248   1.000000000000e+00
    X0000013  C0000250   1.000000000000e+00
    X0000013  OBJ        1.000000000000e+01
    X0000014  C0000260   1.000000000000e+00
    X0000014  C0000262   1.000000000000e+00
    X0000014  OBJ        1.000000000000e+01
    X0000015  C0000272   1.000000000000e+00
    X0000015  C0000274   1.000000000000e+00
    X0000015  OBJ        1.000000000000e+01
    X0000016  C0000284   1.000000000000e+00
    X0000016  C0000286   1.000000000000e+00
    X0000016  OBJ        1.000000000000e+01
    X0000017  C0000032   1.000000000000e+00
    X0000017  C0000034   1.000000000000e+00
    X0000017  OBJ        1.000000000000e+01
    X0000018  C0000044   1.000000000000e+00
    X0000018  C0000046   1.000000000000e+00
    X0000018  OBJ        1.000000000000e+01
    X0000019  C0000056   1.000000000000e+00
    X0000019  C0000058   1.000000000000e+00
    X0000019  OBJ        1.000000000000e+01
    X0000020  C0000068   1.000000000000e+00
    X0000020  C0000070   1.000000000000e+00
    X0000020  OBJ        1.000000000000e+01
    X0000021  C0000080   1.000000000000e+00
    X0000021  C0000082   1.000000000000e+00
    X0000021  OBJ        1.000000000000e+01
    X0000022  C0000092   1.000000000000e+00
    X0000022  C0000094   1.000000000000e+00
    X0000022  OBJ        1.000000000000e+01
    X0000023  C0000104   1.000000000000e+00
    X0000023  C0000106   1.000000000000e+00
    X0000023  OBJ        1.000000000000e+01
    MARK      'MARKER'                 'INTORG'
    X0000024  C0000009   1.000000000000e+00
    X0000024  C0000010  -2.000000000000e+02
    MARK      'MARKER'                 'INTEND'
    MARK      'MARKER'                 'INTORG'
    X0000025  C0000117   1.000000000000e+00
    X0000025  C0000118  -2.000000000000e+02
    MARK      'MARKER'                 'INTEND'
    MARK      'MARKER'                 'INTORG'
    X0000026  C0000129   1.000000000000e+00
    X0000026  C0000130  -2.000000000000e+02
    MARK      'MARKER'                 'INTEND'
    MARK      'MARKER'                 'INTORG'
    X0000027  C0000141   1.000000000000e+00
    X0000027  C0000142  -2.000000000000e+02
    MARK      'MARKER'                 'INTEND'
    MARK      'MARKER'                 'INTORG'
    X0000028  C0000153   1.000000000000e+00
    X0000028  C0000154  -2.000000000000e+02
    MARK      'MARKER'                 'INTEND'
    MARK      'MARKER'                 'INTORG'
    X0000029  C0000165   1.000000000000e+00
    X0000029  C0000166  -2.000000000000e+02
    MARK      'MARKER'                 'INTEND'
    MARK      'MARKER'                 'INTORG'
    X0000030  C0000177   1.000000000000e+00
    X0000030  C0000178  -2.000000000000e+02
    MARK      'MARKER'                 'INTEND'
    MARK      'MARKER'                 'INTORG'
    X0000031  C0000189   1.000000000000e+00
    X0000031  C0000190  -2.000000000000e+02
    MARK      'MARKER'                 'INTEND'
    MARK      'MARKER'                 'INTORG'
    X0000032  C0000201   1.000000000000e+00
    X0000032  C0000202  -2.000000000000e+02
    MARK      'MARKER'                 'INTEND'
    MARK      'MARKER'                 'INTORG'
    X0000033  C0000213   1.000000000000e+00
    X0000033  C0000214  -2.000000000000e+02
    MARK      'MARKER'                 'INTEND'
    MARK      'MARKER'                 'INTORG'
    X0000034  C0000225   1.000000000000e+00
    X0000034  C0000226  -2.000000000000e+02
    MARK      'MARKER'                 'INTEND'
    MARK      'MARKER'                 'INTORG'
    X0000035  C0000021   1.000000000000e+00
    X0000035  C0000022  -2.000000000000e+02
    MARK      'MARKER'                 'INTEND'
    MARK      'MARKER'                 'INTORG'
    X0000036  C0000237   1.000000000000e+00
    X0000036  C0000238  -2.000000000000e+02
    MARK      'MARKER'                 'INTEND'
    MARK      'MARKER'                 'INTORG'
    X0000037  C0000249   1.000000000000e+00
    X0000037  C0000250  -2.000000000000e+02
    MARK      'MARKER'                 'INTEND'
    MARK      'MARKER'                 'INTORG'
    X0000038  C0000261   1.000000000000e+00
    X0000038  C0000262  -2.000000000000e+02
    MARK      'MARKER'                 'INTEND'
    MARK      'MARKER'                 'INTORG'
    X0000039  C0000273   1.000000000000e+00
    X0000039  C0000274  -2.000000000000e+02
    MARK      'MARKER'                 'INTEND'
    MARK      'MARKER'                 'INTORG'
    X0000040  C0000285   1.000000000000e+00
    X0000040  C0000286  -2.000000000000e+02
    MARK      'MARKER'                 'INTEND'
    MARK      'MARKER'                 'INTORG'
    X0000041  C0000033   1.000000000000e+00
    X0000041  C0000034  -2.000000000000e+02
    MARK      'MARKER'                 'INTEND'
    MARK      'MARKER'                 'INTORG'
    X0000042  C0000045   1.000000000000e+00
    X0000042  C0000046  -2.000000000000e+02
    MARK      'MARKER'                 'INTEND'
    MARK      'MARKER'                 'INTORG'
    X0000043  C0000057   1.000000000000e+00
    X0000043  C0000058  -2.000000000000e+02
    MARK      'MARKER'                 'INTEND'
    MARK      'MARKER'                 'INTORG'
    X0000044  C0000069   1.000000000000e+00
    X0000044  C0000070  -2.000000000000e+02
    MARK      'MARKER'                 'INTEND'
    MARK      'MARKER'                 'INTORG'
    X0000045  C0000081   1.000000000000e+00
    X0000045  C0000082  -2.000000000000e+02
    MARK      'MARKER'                 'INTEND'
    MARK      'MARKER'                 'INTORG'
    X0000046  C0000093   1.000000000000e+00
    X0000046  C0000094  -2.000000000000e+02
    MARK      'MARKER'                 'INTEND'
    MARK      'MARKER'                 'INTORG'
    X0000047  C0000105   1.000000000000e+00
    X0000047  C0000106  -2.000000000000e+02
    MARK      'MARKER'                 'INTEND'
    X0000048  C0000005   1.000000000000e+00
    X0000048  C0000006   1.000000000000e+00
    X0000048  C0000007   1.000000000000e+00
    X0000048  C0000019  -1.000000000000e+00
    X0000049  C0000113   1.000000000000e+00
    X0000049  C0000114   1.000000000000e+00
    X0000049  C0000115   1.000000000000e+00
    X0000049  C0000127  -1.000000000000e+00
    X0000050  C0000125   1.000000000000e+00
    X0000050  C0000126   1.000000000000e+00
    X0000050  C0000127   1.000000000000e+00
    X0000050  C0000139  -1.000000000000e+00
    X0000051  C0000137   1.000000000000e+00
    X0000051  C0000138   1.000000000000e+00
    X0000051  C0000139   1.000000000000e+00
    X0000051  C0000151  -1.000000000000e+00
    X0000052  C0000149   1.000000000000e+00
    X0000052  C0000150   1.000000000000e+00
    X0000052  C0000151   1.000000000000e+00
    X0000052  C0000163  -1.000000000000e+00
    X0000053  C0000161   1.000000000000e+00
    X0000053  C0000162   1.000000000000e+00
    X0000053  C0000163   1.000000000000e+00
    X0000053  C0000175  -1.000000000000e+00
    X0000054  C0000173   1.000000000000e+00
    X0000054  C0000174   1.000000000000e+00
    X0000054  C0000175   1.000000000000e+00
    X0000054  C0000187  -1.000000000000e+00
    X0000055  C0000185   1.000000000000e+00
    X0000055  C0000186   1.000000000000e+00
    X0000055  C0000187   1.000000000000e+00
    X0000055  C0000199  -1.000000000000e+00
    X0000056  C0000197   1.000000000000e+00
    X0000056  C0000198   1.000000000000e+00
    X0000056  C0000199   1.000000000000e+00
    X0000056  C0000211  -1.000000000000e+00
    X0000057  C0000209   1.000000000000e+00
    X0000057  C0000210   1.000000000000e+00
    X0000057  C0000211   1.000000000000e+00
    X0000057  C0000223  -1.000000000000e+00
    X0000058  C0000221   1.000000000000e+00
    X0000058  C0000222   1.000000000000e+00
    X0000058  C0000223   1.000000000000e+00
    X0000058  C0000235  -1.000000000000e+00
    X0000059  C0000017   1.000000000000e+00
    X0000059  C0000018   1.000000000000e+00
    X0000059  C0000019   1.000000000000e+00
    X0000059  C0000031  -1.000000000000e+00
    X0000060  C0000233   1.000000000000e+00
    X0000060  C0000234   1.000000000000e+00
    X0000060  C0000235   1.000000000000e+00
    X0000060  C0000247  -1.000000000000e+00
    X0000061  C0000245   1.000000000000e+00
    X0000061  C0000246   1.000000000000e+00
    X0000061  C0000247   1.000000000000e+00
    X0000061  C0000259  -1.000000000000e+00
    X0000062  C0000257   1.000000000000e+00
    X0000062  C0000258   1.000000000000e+00
    X0000062  C0000259   1.000000000000e+00
    X0000062  C0000271  -1.000000000000e+00
    X0000063  C0000269   1.000000000000e+00
    X0000063  C0000270   1.000000000000e+00
    X0000063  C0000271   1.000000000000e+00
    X0000063  C0000283  -1.000000000000e+00
    X0000064  C0000281   1.000000000000e+00
    X0000064  C0000282   1.000000000000e+00
    X0000064  C0000283   1.000000000000e+00
    X0000065  C0000029   1.000000000000e+00
    X0000065  C0000030   1.000000000000e+00
    X0000065  C0000031   1.000000000000e+00
    X0000065  C0000043  -1.000000000000e+00
    X0000066  C0000041   1.000000000000e+00
    X0000066  C0000042   1.000000000000e+00
    X0000066  C0000043   1.000000000000e+00
    X0000066  C0000055  -1.000000000000e+00
    X0000067  C0000053   1.000000000000e+00
    X0000067  C0000054   1.000000000000e+00
    X0000067  C0000055   1.000000000000e+00
    X0000067  C0000067  -1.000000000000e+00
    X0000068  C0000065   1.000000000000e+00
    X0000068  C0000066   1.000000000000e+00
    X0000068  C0000067   1.000000000000e+00
    X0000068  C0000079  -1.000000000000e+00
    X0000069  C0000077   1.000000000000e+00
    X0000069  C0000078   1.000000000000e+00
    X0000069  C0000079   1.000000000000e+00
    X0000069  C0000091  -1.000000000000e+00
    X0000070  C0000089   1.000000000000e+00
    X0000070  C0000090   1.000000000000e+00
    X0000070  C0000091   1.000000000000e+00
    X0000070  C0000103  -1.000000000000e+00
    X0000071  C0000101   1.000000000000e+00
    X0000071  C0000102   1.000000000000e+00
    X0000071  C0000103   1.000000000000e+00
    X0000071  C0000115  -1.000000000000e+00
    X0000072  C0000003  -1.000000000000e+00
    X0000072  C0000004  -1.000000000000e+00
    X0000072  C0000007  -1.000000000000e+00
    X0000072  C0000008  -1.000000000000e+00
    X0000073  C0000111  -1.000000000000e+00
    X0000073  C0000112  -1.000000000000e+00
    X0000073  C0000115  -1.000000000000e+00
    X0000073  C0000116  -1.000000000000e+00
    X0000074  C0000123  -1.000000000000e+00
    X0000074  C0000124  -1.000000000000e+00
    X0000074  C0000127  -1.000000000000e+00
    X0000074  C0000128  -1.000000000000e+00
    X0000075  C0000135  -1.000000000000e+00
    X0000075  C0000136  -1.000000000000e+00
    X0000075  C0000139  -1.000000000000e+00
    X0000075  C0000140  -1.000000000000e+00
    X0000076  C0000147  -1.000000000000e+00
    X0000076  C0000148  -1.000000000000e+00
    X0000076  C0000151  -1.000000000000e+00
    X0000076  C0000152  -1.000000000000e+00
    X0000077  C0000159  -1.000000000000e+00
    X0000077  C0000160  -1.000000000000e+00
    X0000077  C0000163  -1.000000000000e+00
    X0000077  C0000164  -1.000000000000e+00
    X0000078  C0000171  -1.000000000000e+00
    X0000078  C0000172  -1.000000000000e+00
    X0000078  C0000175  -1.000000000000e+00
    X0000078  C0000176  -1.000000000000e+00
    X0000079  C0000183  -1.000000000000e+00
    X0000079  C0000184  -1.000000000000e+00
    X0000079  C0000187  -1.000000000000e+00
    X0000079  C0000188  -1.000000000000e+00
    X0000080  C0000195  -1.000000000000e+00
    X0000080  C0000196  -1.000000000000e+00
    X0000080  C0000199  -1.000000000000e+00
    X0000080  C0000200  -1.000000000000e+00
    X0000081  C0000207  -1.000000000000e+00
    X0000081  C0000208  -1.000000000000e+00
    X0000081  C0000211  -1.000000000000e+00
    X0000081  C0000212  -1.000000000000e+00
    X0000082  C0000219  -1.000000000000e+00
    X0000082  C0000220  -1.000000000000e+00
    X0000082  C0000223  -1.000000000000e+00
    X0000082  C0000224  -1.000000000000e+00
    X0000083  C0000015  -1.000000000000e+00
    X0000083  C0000016  -1.000000000000e+00
    X0000083  C0000019  -1.000000000000e+00
    X0000083  C0000020  -1.000000000000e+00
    X0000084  C0000231  -1.000000000000e+00
    X0000084  C0000232  -1.000000000000e+00
    X0000084  C0000235  -1.000000000000e+00
    X0000084  C0000236  -1.000000000000e+00
    X0000085  C0000243  -1.000000000000e+00
    X0000085  C0000244  -1.000000000000e+00
    X0000085  C0000247  -1.000000000000e+00
    X0000085  C0000248  -1.000000000000e+00
    X0000086  C0000255  -1.000000000000e+00
    X0000086  C0000256  -1.000000000000e+00
    X0000086  C0000259  -1.000000000000e+00
    X0000086  C0000260  -1.000000000000e+00
    X0000087  C0000267  -1.000000000000e+00
    X0000087  C0000268  -1.000000000000e+00
    X0000087  C0000271  -1.000000000000e+00
    X0000087  C0000272  -1.000000000000e+00
    X0000088  C0000279  -1.000000000000e+00
    X0000088  C0000280  -1.000000000000e+00
    X0000088  C0000283  -1.000000000000e+00
    X0000088  C0000284  -1.000000000000e+00
    X0000089  C0000027  -1.000000000000e+00
    X0000089  C0000028  -1.000000000000e+00
    X0000089  C0000031  -1.000000000000e+00
    X0000089  C0000032  -1.000000000000e+00
    X0000090  C0000039  -1.000000000000e+00
    X0000090  C0000040  -1.000000000000e+00
    X0000090  C0000043  -1.000000000000e+00
    X0000090  C0000044  -1.000000000000e+00
    X0000091  C0000051  -1.000000000000e+00
    X0000091  C0000052  -1.000000000000e+00
    X0000091  C0000055  -1.000000000000e+00
    X0000091  C0000056  -1.000000000000e+00
    X0000092  C0000063  -1.000000000000e+00
    X0000092  C0000064  -1.000000000000e+00
    X0000092  C0000067  -1.000000000000e+00
    X0000092  C0000068  -1.000000000000e+00
    X0000093  C0000075  -1.000000000000e+00
    X0000093  C0000076  -1.000000000000e+00
    X0000093  C0000079  -1.000000000000e+00
    X0000093  C0000080  -1.000000000000e+00
    X0000094  C0000087  -1.000000000000e+00
    X0000094  C0000088  -1.000000000000e+00
    X0000094  C0000091  -1.000000000000e+00
    X0000094  C0000092  -1.000000000000e+00
    X0000095  C0000099  -1.000000000000e+00
    X0000095  C0000100  -1.000000000000e+00
    X0000095  C0000103  -1.000000000000e+00
    X0000095  C0000104  -1.000000000000e+00
    MARK      'MARKER'                 'INTORG'
    X0000096  C0000000   1.000000000000e+00
    X0000096  C0000004   1.500000000000e+01
    MARK      'MARKER'                 'INTEND'
    MARK      'MARKER'                 'INTORG'
    X0000097  C0000108   1.000000000000e+00
    X0000097  C0000112   1.500000000000e+01
    MARK      'MARKER'                 'INTEND'
    MARK      'MARKER'                 'INTORG'
    X0000098  C0000120   1.000000000000e+00
    X0000098  C0000124   1.500000000000e+01
    MARK      'MARKER'                 'INTEND'
    MARK      'MARKER'                 'INTORG'
    X0000099  C0000132   1.000000000000e+00
    X0000099  C0000136   1.500000000000e+01
    MARK      'MARKER'                 'INTEND'
    MARK      'MARKER'                 'INTORG'
    X0000100  C0000144   1.000000000000e+00
    X0000100  C0000148   1.500000000000e+01
    MARK      'MARKER'                 'INTEND'
    MARK      'MARKER'                 'INTORG'
    X0000101  C0000156   1.000000000000e+00
    X0000101  C0000160   1.500000000000e+01
    MARK      'MARKER'                 'INTEND'
    MARK      'MARKER'                 'INTORG'
    X0000102  C0000168   1.000000000000e+00
    X0000102  C0000172   1.500000000000e+01
    MARK      'MARKER'                 'INTEND'
    MARK      'MARKER'                 'INTORG'
    X0000103  C0000180   1.000000000000e+00
    X0000103  C0000184   1.500000000000e+01
    MARK      'MARKER'                 'INTEND'
    MARK      'MARKER'                 'INTORG'
    X0000104  C0000192   1.000000000000e+00
    X0000104  C0000196   1.500000000000e+01
    MARK      'MARKER'                 'INTEND'
    MARK      'MARKER'                 'INTORG'
    X0000105  C0000204   1.000000000000e+00
    X0000105  C0000208   1.500000000000e+01
    MARK      'MARKER'                 'INTEND'
    MARK      'MARKER'                 'INTORG'
    X0000106  C0000216   1.000000000000e+00
    X0000106  C0000220   1.500000000000e+01
    MARK      'MARKER'                 'INTEND'
    MARK      'MARKER'                 'INTORG'
    X0000107  C0000012   1.000000000000e+00
    X0000107  C0000016   1.500000000000e+01
    MARK      'MARKER'                 'INTEND'
    MARK      'MARKER'                 'INTORG'
    X0000108  C0000228   1.000000000000e+00
    X0000108  C0000232   1.500000000000e+01
    MARK      'MARKER'                 'INTEND'
    MARK      'MARKER'                 'INTORG'
    X0000109  C0000240   1.000000000000e+00
    X0000109  C0000244   1.500000000000e+01
    MARK      'MARKER'                 'INTEND'
    MARK      'MARKER'                 'INTORG'
    X0000110  C0000252   1.000000000000e+00
    X0000110  C0000256   1.500000000000e+01
    MARK      'MARKER'                 'INTEND'
    MARK      'MARKER'                 'INTORG'
    X0000111  C0000264   1.000000000000e+00
    X0000111  C0000268   1.500000000000e+01
    MARK      'MARKER'                 'INTEND'
    MARK      'MARKER'                 'INTORG'
    X0000112  C0000276   1.000000000000e+00
    X0000112  C0000280   1.500000000000e+01
    MARK      'MARKER'                 'INTEND'
    MARK      'MARKER'                 'INTORG'
    X0000113  C0000024   1.000000000000e+00
    X0000113  C0000028   1.500000000000e+01
    MARK      'MARKER'                 'INTEND'
    MARK      'MARKER'                 'INTORG'
    X0000114  C0000036   1.000000000000e+00
    X0000114  C0000040   1.500000000000e+01
    MARK      'MARKER'                 'INTEND'
    MARK      'MARKER'                 'INTORG'
    X0000115  C0000048   1.000000000000e+00
    X0000115  C0000052   1.500000000000e+01
    MARK      'MARKER'                 'INTEND'
    MARK      'MARKER'                 'INTORG'
    X0000116  C0000060   1.000000000000e+00
    X0000116  C0000064   1.500000000000e+01
    MARK      'MARKER'                 'INTEND'
    MARK      'MARKER'                 'INTORG'
    X0000117  C0000072   1.000000000000e+00
    X0000117  C0000076   1.500000000000e+01
    MARK      'MARKER'                 'INTEND'
    MARK      'MARKER'                 'INTORG'
    X0000118  C0000084   1.000000000000e+00
